(set-info :smt-lib-version 2.6)
(set-logic AUFBVFPDTNIRA)
(set-info :source |
Generated by: AdaCore
Generated on: 2020-03-06
Generator: SPARK
Application: Program verification for Ada
Target solver: CVC4
|)
(set-info :license "https://creativecommons.org/licenses/by/4.0/")
(set-info :category "industrial")
(set-info :status unknown)
;;; generated by SMT-LIB2 driver
;;; SMT-LIB2 driver: bit-vectors, common part
;;; SMT-LIB2: integer arithmetic
(declare-sort string 0)

(declare-datatypes ((tuple0 0))
(((Tuple0))))
(declare-sort us_private 0)

(declare-fun private__bool_eq (us_private us_private) Bool)

(declare-const us_null_ext__ us_private)

(declare-sort us_type_of_heap 0)

(declare-datatypes ((us_type_of_heap__ref 0))
(((us_type_of_heap__refqtmk (us_type_of_heap__content us_type_of_heap)))))
(declare-sort us_image 0)

(declare-datatypes ((int__ref 0))
(((int__refqtmk (int__content Int)))))
(declare-datatypes ((bool__ref 0))
(((bool__refqtmk (bool__content Bool)))))
(declare-datatypes ((us_fixed__ref 0))
(((us_fixed__refqtmk (us_fixed__content Int)))))
(declare-datatypes ((real__ref 0))
(((real__refqtmk (real__content Real)))))
(declare-datatypes ((us_private__ref 0))
(((us_private__refqtmk (us_private__content us_private)))))
(define-fun int__ref___projection ((a int__ref)) Int (int__content a))

(define-fun us_fixed__ref___projection ((a us_fixed__ref)) Int (us_fixed__content
                                                               a))

(define-fun bool__ref___projection ((a bool__ref)) Bool (bool__content a))

(define-fun real__ref___projection ((a real__ref)) Real (real__content a))

(define-fun us_private__ref___projection ((a us_private__ref)) us_private 
  (us_private__content a))

(declare-sort us_main_type 0)

(declare-fun us_main_eq (us_main_type us_main_type) Bool)

(declare-sort us_rep 0)

(declare-fun bool_eq (us_rep us_rep) Bool)

(declare-const value__size Int)

(declare-const object__size Int)

(declare-const alignment Int)

;; value__size_axiom
  (assert (<= 0 value__size))

;; object__size_axiom
  (assert (<= 0 object__size))

;; alignment_axiom
  (assert (<= 0 alignment))

(declare-fun user_eq (us_rep us_rep) Bool)

(declare-const dummy us_rep)

(declare-datatypes ((set__ref 0))
(((set__refqtmk (set__content us_rep)))))
(define-fun set__ref_set__content__projection ((a set__ref)) us_rep (set__content
                                                                    a))

(declare-sort us_main_type1 0)

(declare-fun us_main_eq1 (us_main_type1 us_main_type1) Bool)

(declare-sort us_rep1 0)

(declare-fun bool_eq1 (us_rep1 us_rep1) Bool)

(declare-const value__size1 Int)

(declare-const object__size1 Int)

(declare-const alignment1 Int)

;; value__size_axiom
  (assert (<= 0 value__size1))

;; object__size_axiom
  (assert (<= 0 object__size1))

;; alignment_axiom
  (assert (<= 0 alignment1))

(declare-fun user_eq1 (us_rep1 us_rep1) Bool)

(declare-const dummy1 us_rep1)

(declare-datatypes ((private_key__ref 0))
(((private_key__refqtmk (private_key__content us_rep1)))))
(define-fun private_key__ref_private_key__content__projection ((a private_key__ref)) us_rep1 
  (private_key__content a))

(declare-fun iter_has_element (us_rep us_rep1) Bool)

(declare-fun iter_has_element__function_guard (Bool us_rep us_rep1) Bool)

(declare-const container us_rep)

(declare-const attr__ATTRIBUTE_ADDRESS Int)

(declare-const key us_rep1)

(declare-const attr__ATTRIBUTE_ADDRESS1 Int)

(declare-fun oeq (us_rep us_rep) Bool)

(declare-fun oeq__function_guard (Bool us_rep us_rep) Bool)

(declare-fun is_empty (us_rep) Bool)

(declare-fun is_empty__function_guard (Bool us_rep) Bool)

;; user_eq__def_axiom
  (assert
  (forall ((a us_rep) (b us_rep))
  (! (= (user_eq a b) (oeq a b)) :pattern ((user_eq a b)) )))

(define-fun default_initial_assumption ((temp___expr_208 us_rep)
  (temp___skip_top_level_209 Bool)) Bool (=>
                                         (not
                                         (= temp___skip_top_level_209 true))
                                         (= (is_empty temp___expr_208) true)))

(declare-fun my_equal_01 (Int Int) Bool)

(declare-fun my_equal_01__function_guard (Bool Int Int) Bool)

(declare-sort count_type 0)

(declare-fun count_typeqtint (count_type) Int)

;; count_type'axiom
  (assert
  (forall ((i count_type))
  (and (<= 0 (count_typeqtint i)) (<= (count_typeqtint i) 2147483647))))

(define-fun in_range ((x Int)) Bool (and (<= 0 x) (<= x 2147483647)))

(declare-fun attr__ATTRIBUTE_IMAGE (Int) us_image)

(declare-fun attr__ATTRIBUTE_VALUE__pre_check (us_image) Bool)

(declare-fun attr__ATTRIBUTE_VALUE (us_image) Int)

(declare-fun user_eq2 (count_type count_type) Bool)

(declare-const dummy2 count_type)

(declare-datatypes ((count_type__ref 0))
(((count_type__refqtmk (count_type__content count_type)))))
(define-fun count_type__ref_count_type__content__projection ((a count_type__ref)) count_type 
  (count_type__content a))

(define-fun dynamic_invariant ((temp___expr_223 Int)
  (temp___is_init_219 Bool) (temp___skip_constant_220 Bool)
  (temp___do_toplevel_221 Bool)
  (temp___do_typ_inv_222 Bool)) Bool (=>
                                     (or (= temp___is_init_219 true)
                                     (<= 0 2147483647)) (in_range
                                     temp___expr_223)))

(define-fun in_range1 ((x Int)) Bool (or (= x 0) (= x 1)))

(declare-fun attr__ATTRIBUTE_IMAGE1 (Bool) us_image)

(declare-fun attr__ATTRIBUTE_VALUE__pre_check1 (us_image) Bool)

(declare-fun attr__ATTRIBUTE_VALUE1 (us_image) Bool)

(declare-fun contains (us_rep Int) Bool)

(declare-fun contains__function_guard (Bool us_rep Int) Bool)

(declare-sort element_type 0)

(declare-fun element_typeqtint (element_type) Int)

;; element_type'axiom
  (assert
  (forall ((i element_type))
  (and (<= (- 2147483648) (element_typeqtint i))
  (<= (element_typeqtint i) 2147483647))))

(define-fun in_range2 ((x Int)) Bool (and (<= (- 2147483648) x)
                                     (<= x 2147483647)))

(declare-fun attr__ATTRIBUTE_IMAGE2 (Int) us_image)

(declare-fun attr__ATTRIBUTE_VALUE__pre_check2 (us_image) Bool)

(declare-fun attr__ATTRIBUTE_VALUE2 (us_image) Int)

(declare-fun user_eq3 (element_type element_type) Bool)

(declare-const dummy3 element_type)

(declare-datatypes ((element_type__ref 0))
(((element_type__refqtmk (element_type__content element_type)))))
(define-fun element_type__ref_element_type__content__projection ((a element_type__ref)) element_type 
  (element_type__content a))

(declare-fun length (us_rep) Int)

(declare-fun length__function_guard (Int us_rep) Bool)

;; length__post_axiom
  (assert
  (forall ((container1 us_rep)) (! (in_range
  (length container1)) :pattern ((length container1)) )))

(declare-fun ole (us_rep us_rep) Bool)

(declare-fun ole__function_guard (Bool us_rep us_rep) Bool)

(define-fun dynamic_invariant1 ((temp___expr_200 Int)
  (temp___is_init_196 Bool) (temp___skip_constant_197 Bool)
  (temp___do_toplevel_198 Bool)
  (temp___do_typ_inv_199 Bool)) Bool (=>
                                     (or (= temp___is_init_196 true)
                                     (<= (- 2147483648) 2147483647))
                                     (in_range2 temp___expr_200)))

(assert
;; defqtvc
 ;; File "a-cofuse.ads", line 274, characters 0-0
  (not (not (= (iter_has_element container key) true))))
(check-sat)
(exit)
